[on. 05. april 13:03:50 +0200 2023]  ./input/alternate_g_np_100/100-2-0.gcc
Set parameter Username
Academic license - for non-commercial use only - expires 2024-03-28
Set parameter TimeLimit to value 1800
Set parameter PreCrush to value 1
Set parameter LazyConstraints to value 1
Gurobi Optimizer version 10.0.1 build v10.0.1rc0 (linux64)

CPU model: AMD Ryzen 9 5950X 16-Core Processor, instruction set [SSE2|AVX|AVX2]
Thread count: 16 physical cores, 32 logical processors, using up to 32 threads

Optimize a model with 101 rows, 200 columns and 400 nonzeros
Model fingerprint: 0x625f9f1f
Variable types: 0 continuous, 200 integer (200 binary)
Coefficient statistics:
  Matrix range     [1e+00, 1e+00]
  Objective range  [1e+00, 1e+02]
  Bounds range     [1e+00, 1e+00]
  RHS range        [1e+00, 1e+00]
Presolve time: 0.00s
Presolved: 101 rows, 200 columns, 400 nonzeros
Variable types: 0 continuous, 200 integer (200 binary)

Root relaxation: objective 5.040000e+03, 1 iterations, 0.00 seconds (0.00 work units)

    Nodes    |    Current Node    |     Objective Bounds      |     Work
 Expl Unexpl |  Obj  Depth IntInf | Incumbent    BestBd   Gap | It/Node Time

     0     0 5040.00000    0    -          - 5040.00000      -     -    0s
     0     0 5040.00000    0    -          - 5040.00000      -     -    0s
     0     0 5040.00000    0    8          - 5040.00000      -     -    0s
     0     0 5040.00000    0    -          - 5040.00000      -     -    0s
     0     0 5040.00000    0    -          - 5040.00000      -     -    0s
     0     0 5040.00000    0    -          - 5040.00000      -     -    0s
     0     0 5040.00000    0    -          - 5040.00000      -     -    0s
     0     0 5040.00000    0    -          - 5040.00000      -     -    0s
     0     0 5040.00000    0    -          - 5040.00000      -     -    0s
     0     0 5040.00000    0    -          - 5040.00000      -     -    0s
     0     0 5040.00000    0    -          - 5040.00000      -     -    0s
     0     0 5040.00000    0    -          - 5040.00000      -     -    0s
     0     0 5040.00000    0    -          - 5040.00000      -     -    0s
     0     0 5028.00000    0   26          - 5028.00000      -     -    0s
     0     0 5013.50000    0   27          - 5013.50000      -     -    0s
     0     0 5013.50000    0   25          - 5013.50000      -     -    0s
     0     0 5013.50000    0    9          - 5013.50000      -     -    0s
     0     0 5013.50000    0    9          - 5013.50000      -     -    0s
     0     2 5011.50000    0   13          - 5011.50000      -     -    0s
 16787  8059 4395.69136   28   62          - 4754.50000      -  16.0    5s
 25752 13652 4074.00000   37    2          - 4742.00000      -  17.9   10s
 33440 18099 4299.83333   25   73          - 4711.33333      -  19.3   15s
 43719 23255 infeasible   28               - 4655.00000      -  21.3   20s
H46187 17760                    3604.0000000 4648.00000  29.0%  21.7   21s
H47735 16355                    3687.0000000 4637.00000  25.8%  22.2   23s
 52484 15885 4527.00000   13    - 3687.00000 4601.33333  24.8%  23.8   25s
 67098 18311 4375.00000   11    - 3687.00000 4445.00000  20.6%  24.3   30s
 78219 19045 4293.00000   13    - 3687.00000 4326.05556  17.3%  25.0   35s
 88832 21315 3979.00000   38   17 3687.00000 4228.00000  14.7%  25.1   40s
 100382 24098 4060.00000   31   37 3687.00000 4169.00000  13.1%  24.7   45s
*104956 22087              37    3754.0000000 4134.00000  10.1%  24.7   47s
*106621 22021              34    3761.0000000 4132.00000  9.86%  24.6   47s
*108647 21572              37    3763.0000000 4121.00000  9.51%  24.6   49s
*110830 17792              44    3833.0000000 4106.00000  7.12%  24.5   49s
 110873 16683     cutoff   34      3833.00000 4105.00000  7.10%  24.5   50s
*113307 16424              39    3840.0000000 4098.00000  6.72%  24.4   50s
 121599 12718 3860.00000   33  120 3840.00000 4031.00000  4.97%  24.1   55s
*124071 12691              42    3841.0000000 4027.00000  4.84%  23.9   55s
 137216  5482 3899.25000   41   46 3841.00000 3936.00000  2.47%  23.0   61s

Cutting planes:
  User: 107
  Lazy constraints: 5338

Explored 148545 nodes (3281507 simplex iterations) in 64.02 seconds (27.59 work units)
Thread count was 32 (of 32 available processors)

Solution count 8: 3841 3840 3833 ... 3604

Optimal solution found (tolerance 1.00e-04)
Best objective 3.841000000000e+03, best bound 3.841000000000e+03, gap 0.0000%

User-callback calls 304066, time in user-callback 33.64 sec
Minimal separator inequalities added: 138393
Indegree inequalities added: 0
Passed solution check
[on. 05. april 13:04:54 +0200 2023]  done

